1393.77
0 23 13 34 15 64 46 11 82 95 51 73 50 99 54 91 10 58 48 66 47 25 27 37 86 19 18 85 1 80 56 3 90 17 32 84 59 44 7 68 16 61 76 72 12 35 81 14 39 78 87 30 36 40 5 98 6 33 88 31 62 60 52 83 29 93 89 71 57 38 41 65 96 45 24 9 92 74 63 43 77 26 75 20 42 55 94 49 67 79 69 21 97 2 70 4 22 53 28 8
